Version identifier: 22.1.1.0 | 2022-11-28 | 9160aff4d
CPXPARAM_ClockType                               1
CPXPARAM_Read_DataCheck                          1
CPXPARAM_Threads                                 1
CPXPARAM_TimeLimit                               7200
CPXPARAM_MIP_Tolerances_AbsMIPGap                0
CPXPARAM_MIP_Tolerances_MIPGap                   0
CPXPARAM_MIP_Tolerances_Integrality              0
Tried aggregator 2 times.
MIP Presolve eliminated 56321 rows and 0 columns.
MIP Presolve modified 28800 coefficients.
Aggregator did 2006 substitutions.
Reduced MIP has 26914 rows, 5015 columns, and 137335 nonzeros.
Reduced MIP has 5015 binaries, 0 generals, 0 SOSs, and 0 indicators.
Presolve time = 0.75 sec. (459.66 ticks)
Probing time = 0.02 sec. (3.87 ticks)
Tried aggregator 1 time.
Detecting symmetries...
MIP Presolve eliminated 108 rows and 0 columns.
Reduced MIP has 26806 rows, 5015 columns, and 135499 nonzeros.
Reduced MIP has 5015 binaries, 0 generals, 0 SOSs, and 0 indicators.
Presolve time = 0.31 sec. (199.24 ticks)
Probing time = 0.01 sec. (3.79 ticks)
Clique table members: 33451.
MIP emphasis: balance optimality and feasibility.
MIP search method: dynamic search.
Parallel mode: none, using 1 thread.
Root relaxation solution time = 1.83 sec. (721.36 ticks)

        Nodes                                         Cuts/
   Node  Left     Objective  IInf  Best Integer    Best Bound    ItCnt     Gap

      0     0      134.5948  1122                    134.5948     6337         
      0     0      118.0000   891                   Cuts: 194    27291         
      0     0      118.0000   988                   Cuts: 607    50053         
      0     0      118.0000   468                  Cliques: 1    50055         
      0     0      118.0000   887                   Cuts: 353    76472         
Heuristic still looking.
*     0+    0                          118.0000      118.0000             0.00%
      0     0        cutoff            118.0000      118.0000    76472    0.00%
Elapsed time = 372.52 sec. (150295.24 ticks, tree = 0.01 MB, solutions = 1)

Clique cuts applied:  17
Zero-half cuts applied:  1

Root node processing (before b&c):
  Real time             =  372.53 sec. (150295.60 ticks)
Sequential b&c:
  Real time             =    0.00 sec. (0.00 ticks)
                          ------------
Total (root+branch&cut) =  372.53 sec. (150295.60 ticks)
Solution is feasible.

---------------------
@@@ MIP_optimal
>>> Benchmark mc2024_track1_033.cnf k 2 OPT 118 TimeCost 386.31666707992554 TimeSolve 373.98498582839966 TimeRead 0.0628352165222168 TimeTrans 12.268846035003662
